5 5
0 14 4 54 3 85 1 86 2 21
4 50 3 94 0 39 1 20 2 88
2 87 3 7 1 9 0 1 4 26
4 38 3 38 1 61 2 44 0 86
2 44 4 74 1 62 0 6 3 17
-1
0 2 4 5
0 1 3 5
0 3 5
0 2 4 5
0 4 5
-2
70 321 278
61 261 386
119 162
91 252 323
211 252

407 7
0 7 13 19 23
12 17 22 8 3
10 20 18 9 4
16 11 6 2 24
15 5 1 21 14
